(set-logic QF_UF)
(declare-sort U 0)
(declare-sort I 0)
(declare-fun unit () I)
(declare-fun op (I I) I)
(declare-fun e5 () I)
(declare-fun e4 () I)
(declare-fun e3 () I)
(declare-fun e2 () I)
(declare-fun e1 () I)
(declare-fun e0 () I)
(assert (or (not (= (or (not (= (op e5 (op e5 e5)) e5)) (= e5 unit)) (or (not (= e5 (op e5 (op e5 e5)))) (= e5 e0)))) (not (or (not (= (op e5 (op e5 e5)) e5)) (= e5 unit))) (or (not (= e5 (op e5 (op e5 e5)))) (= e5 e0))))
(assert (= (or (not (= (op e5 (op e5 e5)) e5)) (= e5 unit)) (or (not (= e5 (op e5 (op e5 e5)))) (= e5 e0))))
(assert (or (not (= (op e5 (op e5 e5)) e5)) (= e5 unit)))
(assert (not (or (not (= e5 (op e5 (op e5 e5)))) (= e5 e0))))
(check-sat)
(exit)
